146
527
37
83
176
24
49
47
539
27
103
85
0
113
225
173
66
51
23
67
49
58
124
67
151
23
27
721
39
30
32
174
76
50
25
29
131
44
238
84
140
46
22
348
39
78
126
0
80
16
96
274
90
52
26
0
52
195
38
48
70
95
96
23
0
122
221
51
71
67
41
72
91
58
0
20
87
79
46
64
61
38
83
0
86
38
110
40
70
93
35
74
133
36
66
351
65
38
28
58
